benchmarks_CP/INST_64x64/40/inst64x64_40_19.dzn
S=8;
start=[|
-1,	-1,	-1,	-1,	-1,	-1,	-1,	-1,	-1,	-1,	-1,	41,	-1,	-1,	-1,	-1,	51,	-1,	-1,	-1,	-1,	-1,	13,	-1,	10,	53,	29,	43,	18,	-1,	49,	44,	-1,	34,	54,	-1,	-1,	-1,	40,	-1,	-1,	-1,	-1,	-1,	-1,	-1,	-1,	12,	23,	45,	-1,	28,	46,	48,	27,	30,	22,	-1,	-1,	56,	-1,	-1,	-1,	-1|
56,	38,	-1,	-1,	-1,	-1,	-1,	-1,	55,	-1,	-1,	-1,	-1,	-1,	54,	-1,	-1,	3,	-1,	25,	39,	-1,	50,	2,	21,	-1,	-1,	-1,	-1,	52,	-1,	37,	-1,	-1,	-1,	8,	-1,	-1,	-1,	-1,	-1,	-1,	42,	-1,	-1,	45,	-1,	10,	16,	-1,	26,	-1,	-1,	-1,	-1,	-1,	13,	30,	34,	64,	-1,	-1,	-1,	-1|
28,	55,	47,	-1,	-1,	-1,	-1,	-1,	9,	56,	36,	22,	-1,	-1,	-1,	-1,	4,	15,	-1,	-1,	-1,	-1,	-1,	-1,	-1,	-1,	-1,	32,	-1,	-1,	-1,	-1,	-1,	60,	12,	37,	-1,	-1,	26,	2,	-1,	-1,	-1,	-1,	8,	-1,	-1,	-1,	24,	-1,	-1,	61,	5,	43,	-1,	-1,	19,	58,	-1,	11,	-1,	57,	-1,	-1|
-1,	-1,	-1,	-1,	53,	62,	13,	-1,	-1,	-1,	-1,	-1,	4,	-1,	-1,	-1,	11,	-1,	-1,	-1,	-1,	-1,	-1,	-1,	26,	-1,	-1,	-1,	5,	34,	42,	-1,	-1,	41,	24,	18,	-1,	-1,	49,	-1,	57,	37,	2,	29,	-1,	-1,	-1,	61,	-1,	-1,	-1,	8,	21,	-1,	-1,	-1,	51,	-1,	-1,	-1,	43,	-1,	-1,	-1|
-1,	-1,	-1,	-1,	-1,	34,	-1,	16,	25,	-1,	61,	-1,	-1,	-1,	-1,	-1,	-1,	-1,	-1,	-1,	-1,	-1,	-1,	49,	57,	-1,	31,	60,	-1,	30,	35,	-1,	14,	42,	-1,	-1,	-1,	-1,	-1,	59,	-1,	-1,	54,	-1,	-1,	-1,	-1,	-1,	-1,	9,	-1,	-1,	1,	50,	2,	-1,	5,	-1,	18,	10,	-1,	3,	23,	20|
64,	-1,	-1,	-1,	26,	35,	48,	-1,	-1,	45,	-1,	37,	-1,	16,	3,	43,	-1,	10,	-1,	-1,	-1,	17,	29,	9,	55,	11,	-1,	-1,	20,	24,	-1,	-1,	-1,	15,	61,	36,	-1,	-1,	-1,	-1,	-1,	19,	28,	-1,	-1,	-1,	-1,	-1,	-1,	-1,	63,	40,	-1,	-1,	-1,	-1,	4,	2,	-1,	-1,	-1,	-1,	-1,	14|
-1,	-1,	-1,	-1,	10,	-1,	-1,	20,	47,	-1,	11,	57,	31,	-1,	-1,	2,	-1,	48,	-1,	-1,	24,	55,	-1,	30,	-1,	1,	-1,	-1,	36,	-1,	59,	-1,	-1,	-1,	22,	25,	-1,	-1,	-1,	-1,	-1,	4,	-1,	51,	16,	-1,	-1,	-1,	-1,	19,	-1,	3,	-1,	42,	29,	-1,	-1,	-1,	-1,	41,	-1,	-1,	-1,	38|
-1,	-1,	-1,	-1,	-1,	-1,	-1,	-1,	17,	26,	-1,	19,	-1,	15,	-1,	24,	37,	47,	14,	-1,	35,	-1,	-1,	-1,	51,	23,	-1,	-1,	-1,	-1,	-1,	-1,	-1,	4,	30,	-1,	29,	10,	1,	16,	-1,	-1,	-1,	5,	41,	43,	-1,	-1,	-1,	44,	-1,	-1,	39,	25,	-1,	-1,	53,	45,	60,	33,	7,	49,	-1,	-1|
-1,	34,	-1,	18,	32,	19,	-1,	-1,	15,	-1,	-1,	-1,	54,	-1,	25,	13,	-1,	-1,	-1,	21,	-1,	2,	8,	20,	-1,	-1,	-1,	42,	-1,	4,	-1,	-1,	7,	-1,	9,	-1,	-1,	-1,	41,	-1,	10,	-1,	-1,	-1,	52,	6,	-1,	56,	31,	-1,	24,	-1,	58,	-1,	-1,	49,	45,	-1,	51,	23,	-1,	-1,	53,	59|
-1,	-1,	-1,	17,	-1,	-1,	-1,	-1,	2,	21,	-1,	-1,	40,	46,	-1,	-1,	-1,	-1,	16,	-1,	25,	-1,	52,	-1,	-1,	45,	-1,	-1,	-1,	63,	6,	12,	48,	-1,	-1,	57,	-1,	50,	60,	47,	30,	-1,	-1,	28,	-1,	-1,	23,	-1,	-1,	-1,	-1,	-1,	-1,	-1,	43,	-1,	-1,	-1,	5,	-1,	-1,	-1,	-1,	-1|
-1,	39,	21,	-1,	59,	44,	-1,	25,	-1,	64,	-1,	-1,	-1,	11,	27,	32,	41,	42,	-1,	-1,	60,	33,	48,	6,	-1,	51,	1,	-1,	-1,	-1,	28,	-1,	31,	-1,	-1,	24,	-1,	23,	-1,	10,	-1,	36,	-1,	-1,	-1,	-1,	-1,	16,	-1,	47,	-1,	-1,	-1,	-1,	-1,	-1,	-1,	-1,	-1,	7,	-1,	-1,	-1,	-1|
-1,	-1,	58,	-1,	1,	-1,	61,	-1,	-1,	-1,	-1,	6,	-1,	39,	38,	-1,	46,	-1,	-1,	40,	50,	-1,	-1,	-1,	-1,	-1,	-1,	-1,	-1,	48,	-1,	-1,	-1,	45,	-1,	-1,	49,	-1,	-1,	-1,	-1,	35,	-1,	-1,	59,	55,	2,	21,	-1,	29,	15,	17,	-1,	-1,	23,	-1,	-1,	28,	-1,	-1,	11,	-1,	-1,	-1|
-1,	-1,	-1,	35,	-1,	38,	-1,	-1,	34,	-1,	-1,	-1,	-1,	-1,	48,	-1,	44,	-1,	-1,	-1,	-1,	-1,	-1,	32,	-1,	-1,	-1,	-1,	-1,	43,	50,	-1,	25,	-1,	-1,	-1,	21,	-1,	-1,	-1,	-1,	-1,	57,	-1,	3,	61,	62,	-1,	-1,	-1,	-1,	-1,	-1,	18,	46,	-1,	-1,	-1,	56,	-1,	-1,	-1,	-1,	-1|
47,	-1,	55,	-1,	12,	-1,	-1,	3,	-1,	-1,	31,	33,	-1,	57,	50,	-1,	-1,	-1,	-1,	11,	19,	-1,	62,	28,	-1,	-1,	-1,	-1,	10,	-1,	58,	-1,	15,	-1,	64,	52,	-1,	-1,	-1,	-1,	7,	-1,	48,	-1,	-1,	-1,	-1,	-1,	20,	-1,	-1,	63,	-1,	27,	-1,	-1,	-1,	-1,	-1,	-1,	41,	37,	-1,	26|
7,	6,	10,	52,	-1,	-1,	-1,	-1,	-1,	-1,	-1,	63,	-1,	-1,	61,	19,	57,	29,	-1,	-1,	-1,	-1,	-1,	-1,	30,	-1,	-1,	36,	26,	-1,	54,	-1,	-1,	-1,	-1,	-1,	-1,	34,	27,	46,	-1,	-1,	-1,	-1,	-1,	-1,	-1,	-1,	-1,	48,	-1,	-1,	-1,	-1,	-1,	-1,	-1,	-1,	-1,	-1,	-1,	-1,	40,	-1|
-1,	42,	-1,	48,	50,	13,	8,	5,	52,	59,	-1,	-1,	24,	-1,	55,	29,	23,	-1,	36,	-1,	12,	-1,	63,	-1,	-1,	-1,	-1,	38,	57,	-1,	-1,	-1,	-1,	-1,	-1,	-1,	30,	20,	33,	-1,	-1,	-1,	18,	-1,	-1,	40,	-1,	-1,	21,	-1,	-1,	7,	-1,	34,	45,	3,	-1,	-1,	-1,	-1,	-1,	-1,	-1,	-1|
-1,	-1,	-1,	60,	17,	31,	55,	-1,	-1,	-1,	-1,	12,	-1,	-1,	35,	-1,	-1,	-1,	41,	34,	-1,	56,	42,	-1,	1,	-1,	51,	44,	54,	2,	-1,	14,	-1,	-1,	-1,	27,	-1,	-1,	-1,	-1,	-1,	-1,	-1,	64,	-1,	-1,	-1,	-1,	-1,	-1,	9,	-1,	-1,	22,	37,	-1,	-1,	62,	-1,	-1,	-1,	59,	-1,	-1|
-1,	-1,	41,	-1,	28,	-1,	22,	15,	-1,	62,	40,	36,	-1,	34,	16,	51,	48,	21,	35,	57,	17,	-1,	-1,	26,	-1,	-1,	61,	3,	6,	-1,	-1,	-1,	-1,	-1,	46,	-1,	23,	-1,	2,	1,	-1,	55,	-1,	-1,	-1,	-1,	24,	-1,	-1,	-1,	59,	13,	-1,	-1,	60,	4,	-1,	9,	-1,	-1,	-1,	27,	31,	-1|
-1,	4,	-1,	-1,	-1,	52,	-1,	-1,	-1,	-1,	-1,	27,	-1,	-1,	5,	41,	-1,	-1,	39,	-1,	-1,	-1,	-1,	-1,	-1,	-1,	-1,	-1,	-1,	36,	-1,	-1,	-1,	-1,	62,	56,	18,	-1,	10,	15,	3,	-1,	31,	-1,	-1,	13,	-1,	2,	-1,	16,	-1,	-1,	53,	-1,	48,	-1,	-1,	-1,	-1,	26,	-1,	-1,	14,	-1|
-1,	24,	-1,	-1,	27,	-1,	47,	56,	-1,	52,	-1,	-1,	15,	-1,	-1,	-1,	-1,	-1,	-1,	-1,	-1,	44,	16,	-1,	-1,	-1,	-1,	-1,	23,	37,	-1,	-1,	60,	14,	40,	-1,	26,	-1,	51,	-1,	-1,	-1,	-1,	62,	-1,	-1,	11,	-1,	-1,	-1,	-1,	20,	-1,	-1,	-1,	28,	39,	-1,	38,	-1,	-1,	19,	-1,	-1|
26,	62,	29,	-1,	-1,	-1,	-1,	-1,	-1,	10,	-1,	-1,	37,	-1,	-1,	47,	-1,	-1,	-1,	-1,	2,	63,	-1,	3,	-1,	-1,	41,	-1,	55,	-1,	11,	-1,	-1,	-1,	-1,	-1,	-1,	-1,	-1,	42,	20,	-1,	-1,	49,	-1,	-1,	-1,	-1,	-1,	-1,	34,	45,	50,	-1,	19,	-1,	40,	33,	-1,	61,	-1,	4,	1,	-1|
-1,	1,	-1,	-1,	-1,	-1,	-1,	-1,	-1,	24,	49,	-1,	26,	-1,	57,	14,	31,	-1,	-1,	-1,	20,	64,	15,	23,	-1,	12,	-1,	-1,	-1,	39,	60,	-1,	-1,	-1,	21,	43,	-1,	-1,	-1,	9,	-1,	-1,	-1,	-1,	-1,	-1,	-1,	-1,	-1,	61,	41,	44,	-1,	-1,	5,	-1,	-1,	-1,	-1,	34,	8,	-1,	-1,	-1|
40,	-1,	8,	-1,	-1,	-1,	-1,	51,	61,	44,	-1,	-1,	50,	29,	1,	60,	62,	13,	30,	-1,	-1,	-1,	11,	-1,	18,	35,	-1,	27,	59,	-1,	26,	-1,	-1,	-1,	48,	-1,	16,	-1,	20,	-1,	56,	-1,	45,	14,	39,	54,	-1,	-1,	-1,	-1,	-1,	-1,	2,	32,	15,	23,	63,	-1,	36,	22,	-1,	5,	-1,	-1|
54,	-1,	-1,	-1,	-1,	12,	-1,	-1,	-1,	63,	19,	-1,	53,	-1,	-1,	-1,	14,	-1,	22,	-1,	-1,	8,	-1,	-1,	49,	-1,	-1,	-1,	-1,	-1,	-1,	-1,	-1,	-1,	-1,	3,	-1,	61,	-1,	-1,	6,	-1,	52,	-1,	38,	60,	41,	1,	-1,	31,	-1,	-1,	56,	-1,	18,	39,	-1,	-1,	-1,	2,	15,	-1,	47,	44|
-1,	-1,	-1,	-1,	44,	-1,	50,	21,	-1,	-1,	62,	-1,	-1,	-1,	9,	-1,	60,	-1,	42,	-1,	-1,	57,	32,	48,	-1,	-1,	-1,	-1,	-1,	-1,	31,	-1,	-1,	16,	27,	54,	56,	-1,	-1,	-1,	-1,	-1,	-1,	34,	30,	64,	15,	41,	22,	-1,	-1,	-1,	63,	-1,	-1,	45,	26,	38,	-1,	-1,	-1,	10,	18,	61|
-1,	-1,	-1,	54,	57,	-1,	42,	-1,	-1,	61,	45,	-1,	63,	22,	60,	-1,	-1,	-1,	-1,	-1,	-1,	-1,	-1,	-1,	47,	3,	26,	-1,	15,	27,	-1,	-1,	5,	39,	-1,	-1,	32,	-1,	-1,	24,	-1,	-1,	14,	-1,	-1,	-1,	-1,	19,	-1,	-1,	-1,	-1,	10,	-1,	11,	20,	-1,	-1,	8,	-1,	46,	-1,	17,	-1|
-1,	7,	-1,	33,	51,	26,	-1,	48,	24,	-1,	-1,	-1,	18,	-1,	17,	50,	5,	49,	-1,	52,	-1,	-1,	-1,	-1,	-1,	14,	57,	-1,	-1,	9,	32,	63,	-1,	-1,	-1,	-1,	-1,	38,	-1,	31,	-1,	39,	61,	-1,	-1,	10,	-1,	3,	6,	-1,	-1,	34,	-1,	53,	-1,	36,	-1,	-1,	1,	-1,	23,	55,	-1,	-1|
30,	-1,	-1,	45,	-1,	-1,	-1,	-1,	43,	-1,	23,	-1,	-1,	19,	33,	57,	22,	-1,	26,	-1,	44,	-1,	-1,	-1,	13,	-1,	-1,	-1,	-1,	-1,	-1,	-1,	41,	-1,	18,	62,	-1,	58,	11,	36,	38,	-1,	-1,	27,	28,	-1,	-1,	-1,	-1,	55,	4,	-1,	-1,	51,	-1,	-1,	9,	-1,	-1,	-1,	-1,	54,	52,	-1|
62,	35,	38,	-1,	-1,	59,	10,	24,	-1,	-1,	-1,	-1,	-1,	5,	-1,	-1,	-1,	-1,	46,	-1,	-1,	-1,	-1,	29,	23,	43,	64,	22,	1,	-1,	-1,	17,	-1,	-1,	-1,	-1,	61,	-1,	-1,	63,	48,	-1,	20,	-1,	54,	-1,	-1,	37,	3,	-1,	27,	60,	31,	-1,	-1,	8,	-1,	6,	-1,	-1,	30,	25,	15,	-1|
34,	-1,	-1,	-1,	63,	-1,	-1,	-1,	6,	51,	-1,	54,	-1,	38,	29,	11,	-1,	-1,	-1,	1,	-1,	-1,	-1,	-1,	-1,	36,	12,	-1,	-1,	35,	25,	-1,	26,	57,	-1,	-1,	14,	-1,	-1,	64,	46,	62,	17,	-1,	21,	-1,	-1,	-1,	42,	-1,	-1,	32,	-1,	-1,	-1,	43,	60,	24,	-1,	-1,	-1,	-1,	-1,	5|
-1,	32,	-1,	-1,	-1,	-1,	31,	-1,	3,	-1,	21,	-1,	10,	-1,	40,	34,	-1,	-1,	63,	43,	-1,	-1,	-1,	-1,	-1,	-1,	24,	-1,	-1,	29,	-1,	-1,	55,	-1,	-1,	-1,	-1,	-1,	59,	-1,	26,	-1,	-1,	6,	-1,	22,	-1,	-1,	18,	-1,	54,	-1,	-1,	-1,	-1,	-1,	14,	-1,	27,	51,	-1,	-1,	-1,	33|
-1,	-1,	-1,	23,	-1,	1,	39,	-1,	56,	35,	-1,	-1,	47,	-1,	7,	49,	55,	-1,	-1,	50,	4,	53,	27,	21,	-1,	-1,	-1,	-1,	-1,	-1,	19,	-1,	6,	28,	-1,	20,	-1,	-1,	3,	-1,	-1,	8,	-1,	9,	-1,	57,	-1,	29,	-1,	14,	-1,	-1,	-1,	-1,	-1,	-1,	-1,	42,	-1,	-1,	-1,	-1,	22,	-1|
-1,	-1,	-1,	-1,	54,	-1,	-1,	-1,	40,	-1,	63,	48,	-1,	-1,	-1,	-1,	12,	-1,	-1,	61,	57,	27,	33,	-1,	37,	-1,	45,	11,	-1,	49,	55,	20,	-1,	64,	-1,	-1,	-1,	7,	46,	60,	-1,	-1,	8,	31,	-1,	-1,	-1,	59,	10,	-1,	14,	-1,	-1,	39,	13,	-1,	16,	-1,	21,	25,	18,	-1,	30,	-1|
45,	-1,	-1,	-1,	35,	49,	-1,	-1,	8,	46,	-1,	-1,	12,	60,	14,	42,	17,	-1,	-1,	62,	-1,	23,	30,	34,	-1,	24,	16,	-1,	-1,	-1,	-1,	-1,	4,	-1,	-1,	-1,	36,	54,	-1,	3,	-1,	-1,	-1,	-1,	-1,	-1,	-1,	-1,	55,	-1,	61,	-1,	11,	-1,	-1,	40,	31,	-1,	-1,	27,	-1,	64,	-1,	63|
20,	-1,	34,	58,	-1,	11,	51,	57,	4,	30,	-1,	-1,	-1,	-1,	37,	-1,	-1,	-1,	-1,	42,	8,	-1,	38,	-1,	-1,	-1,	-1,	-1,	-1,	3,	7,	9,	35,	-1,	-1,	-1,	-1,	-1,	14,	-1,	47,	-1,	-1,	-1,	-1,	-1,	-1,	15,	-1,	5,	-1,	1,	29,	-1,	-1,	-1,	24,	-1,	-1,	12,	-1,	26,	-1,	-1|
-1,	53,	63,	-1,	-1,	-1,	-1,	-1,	-1,	-1,	-1,	61,	-1,	26,	-1,	-1,	-1,	-1,	51,	-1,	7,	20,	-1,	37,	-1,	-1,	27,	1,	-1,	-1,	-1,	41,	17,	-1,	55,	-1,	15,	-1,	-1,	25,	-1,	30,	-1,	38,	-1,	9,	-1,	-1,	28,	-1,	-1,	-1,	-1,	21,	8,	50,	-1,	-1,	59,	-1,	-1,	-1,	10,	-1|
-1,	-1,	30,	-1,	-1,	40,	41,	50,	27,	25,	2,	24,	52,	-1,	-1,	-1,	35,	60,	-1,	-1,	29,	-1,	4,	54,	-1,	-1,	-1,	-1,	-1,	-1,	23,	-1,	-1,	43,	63,	-1,	53,	26,	-1,	49,	-1,	22,	5,	-1,	12,	-1,	-1,	64,	-1,	-1,	37,	-1,	42,	-1,	-1,	-1,	58,	-1,	-1,	-1,	-1,	8,	-1,	-1|
-1,	46,	28,	-1,	-1,	-1,	-1,	-1,	-1,	-1,	-1,	-1,	6,	10,	-1,	-1,	45,	-1,	58,	-1,	-1,	-1,	-1,	-1,	-1,	15,	-1,	-1,	-1,	44,	-1,	-1,	20,	-1,	39,	-1,	-1,	29,	-1,	8,	-1,	-1,	33,	-1,	-1,	34,	42,	-1,	17,	-1,	-1,	-1,	-1,	-1,	3,	16,	-1,	-1,	4,	-1,	-1,	41,	-1,	51|
-1,	-1,	-1,	42,	-1,	-1,	-1,	-1,	62,	-1,	-1,	-1,	-1,	-1,	53,	-1,	-1,	63,	-1,	56,	-1,	1,	24,	-1,	-1,	-1,	-1,	51,	-1,	-1,	61,	64,	-1,	-1,	-1,	2,	31,	47,	5,	12,	27,	14,	-1,	-1,	48,	-1,	57,	45,	4,	52,	-1,	6,	-1,	30,	-1,	44,	55,	22,	46,	-1,	-1,	50,	54,	29|
37,	-1,	-1,	24,	-1,	-1,	-1,	29,	7,	50,	64,	-1,	16,	59,	49,	-1,	19,	-1,	-1,	5,	-1,	14,	-1,	-1,	-1,	-1,	10,	4,	33,	54,	-1,	-1,	-1,	9,	-1,	-1,	-1,	1,	-1,	57,	11,	-1,	-1,	41,	-1,	-1,	-1,	44,	-1,	-1,	-1,	-1,	-1,	-1,	-1,	-1,	-1,	-1,	-1,	-1,	60,	-1,	34,	-1|
-1,	64,	17,	13,	30,	-1,	49,	22,	-1,	14,	-1,	-1,	-1,	-1,	44,	12,	29,	5,	-1,	-1,	3,	-1,	-1,	11,	19,	10,	-1,	-1,	45,	-1,	33,	-1,	-1,	-1,	41,	-1,	42,	-1,	-1,	-1,	-1,	-1,	-1,	-1,	-1,	-1,	54,	47,	-1,	43,	-1,	-1,	-1,	36,	-1,	-1,	-1,	-1,	-1,	-1,	40,	-1,	8,	56|
-1,	-1,	56,	31,	29,	-1,	-1,	-1,	-1,	-1,	50,	-1,	-1,	-1,	-1,	18,	30,	-1,	-1,	-1,	52,	-1,	-1,	-1,	3,	-1,	37,	48,	-1,	-1,	36,	-1,	-1,	59,	-1,	-1,	-1,	2,	35,	-1,	-1,	-1,	-1,	42,	-1,	16,	-1,	27,	-1,	34,	-1,	39,	-1,	38,	14,	61,	-1,	-1,	55,	53,	-1,	-1,	25,	19|
23,	-1,	-1,	-1,	21,	-1,	-1,	-1,	-1,	-1,	-1,	-1,	-1,	-1,	15,	-1,	63,	32,	-1,	44,	-1,	-1,	-1,	-1,	31,	49,	-1,	-1,	34,	-1,	5,	24,	62,	46,	50,	-1,	25,	-1,	-1,	-1,	-1,	-1,	43,	-1,	-1,	14,	-1,	-1,	-1,	37,	-1,	-1,	6,	3,	-1,	-1,	47,	-1,	-1,	45,	-1,	-1,	57,	27|
18,	-1,	-1,	34,	-1,	3,	57,	9,	51,	-1,	24,	-1,	-1,	32,	11,	10,	-1,	27,	-1,	45,	40,	38,	61,	59,	43,	-1,	-1,	-1,	-1,	14,	-1,	39,	-1,	-1,	-1,	-1,	60,	-1,	-1,	-1,	-1,	2,	-1,	21,	36,	-1,	-1,	58,	13,	-1,	-1,	-1,	-1,	-1,	-1,	-1,	6,	46,	-1,	37,	-1,	15,	16,	54|
-1,	20,	-1,	16,	-1,	25,	19,	27,	29,	28,	-1,	-1,	-1,	-1,	-1,	9,	24,	-1,	48,	58,	-1,	-1,	-1,	-1,	-1,	-1,	-1,	17,	-1,	-1,	-1,	-1,	57,	-1,	-1,	-1,	10,	52,	-1,	-1,	32,	-1,	-1,	-1,	-1,	59,	44,	39,	-1,	49,	-1,	30,	55,	47,	53,	54,	-1,	60,	-1,	1,	-1,	2,	-1,	-1|
39,	-1,	-1,	4,	-1,	-1,	-1,	-1,	21,	54,	41,	47,	-1,	36,	31,	55,	50,	34,	49,	17,	-1,	-1,	-1,	-1,	-1,	-1,	60,	-1,	16,	-1,	2,	-1,	-1,	-1,	-1,	51,	43,	-1,	-1,	38,	-1,	-1,	63,	-1,	-1,	30,	-1,	62,	5,	25,	-1,	-1,	27,	29,	40,	15,	-1,	-1,	64,	-1,	42,	-1,	58,	28|
55,	-1,	62,	1,	-1,	-1,	12,	-1,	-1,	42,	13,	30,	-1,	-1,	-1,	46,	-1,	14,	2,	-1,	-1,	-1,	-1,	60,	-1,	-1,	-1,	-1,	29,	61,	-1,	-1,	40,	53,	-1,	-1,	19,	21,	-1,	18,	-1,	-1,	-1,	-1,	-1,	-1,	48,	-1,	-1,	64,	-1,	-1,	-1,	23,	17,	9,	-1,	36,	-1,	-1,	-1,	-1,	-1,	-1|
-1,	28,	-1,	-1,	-1,	-1,	-1,	-1,	53,	-1,	5,	3,	-1,	6,	20,	33,	43,	-1,	-1,	39,	-1,	19,	-1,	64,	-1,	-1,	-1,	-1,	25,	55,	-1,	-1,	45,	58,	-1,	-1,	-1,	-1,	30,	56,	40,	50,	22,	-1,	7,	46,	17,	13,	35,	8,	-1,	16,	24,	11,	-1,	-1,	48,	-1,	62,	-1,	31,	12,	-1,	-1|
-1,	-1,	-1,	59,	19,	-1,	-1,	12,	-1,	17,	-1,	26,	36,	42,	-1,	-1,	-1,	23,	-1,	-1,	45,	62,	-1,	24,	-1,	58,	-1,	-1,	49,	-1,	-1,	-1,	-1,	-1,	-1,	7,	-1,	57,	-1,	-1,	-1,	52,	-1,	-1,	-1,	-1,	-1,	-1,	-1,	28,	-1,	53,	-1,	8,	-1,	-1,	18,	43,	39,	-1,	-1,	-1,	60,	4|
48,	-1,	-1,	-1,	-1,	30,	-1,	-1,	11,	-1,	22,	29,	34,	-1,	-1,	-1,	61,	17,	-1,	-1,	51,	-1,	59,	40,	-1,	56,	53,	14,	2,	-1,	13,	-1,	43,	3,	-1,	-1,	6,	-1,	-1,	-1,	-1,	-1,	46,	50,	35,	19,	26,	-1,	-1,	-1,	-1,	-1,	16,	37,	44,	31,	-1,	-1,	63,	38,	45,	36,	42,	7|
17,	21,	31,	64,	22,	-1,	7,	-1,	-1,	-1,	-1,	-1,	-1,	-1,	-1,	-1,	-1,	39,	4,	-1,	-1,	-1,	-1,	63,	-1,	-1,	36,	-1,	-1,	38,	34,	-1,	-1,	37,	-1,	61,	-1,	-1,	-1,	-1,	51,	41,	6,	47,	-1,	24,	16,	-1,	49,	-1,	-1,	-1,	18,	-1,	-1,	-1,	-1,	-1,	19,	13,	35,	-1,	-1,	-1|
51,	11,	57,	-1,	-1,	54,	-1,	-1,	-1,	-1,	-1,	-1,	64,	49,	-1,	63,	-1,	44,	-1,	2,	-1,	13,	12,	-1,	-1,	-1,	-1,	-1,	42,	-1,	46,	-1,	-1,	-1,	1,	33,	52,	-1,	-1,	35,	61,	-1,	15,	-1,	60,	23,	3,	-1,	-1,	-1,	-1,	-1,	7,	-1,	-1,	-1,	-1,	34,	-1,	-1,	-1,	14,	48,	30|
-1,	23,	-1,	43,	39,	-1,	-1,	-1,	-1,	-1,	-1,	-1,	-1,	50,	12,	-1,	-1,	-1,	64,	-1,	-1,	6,	20,	-1,	-1,	27,	-1,	10,	-1,	-1,	-1,	-1,	-1,	-1,	36,	26,	-1,	-1,	-1,	-1,	-1,	-1,	29,	-1,	1,	-1,	-1,	-1,	2,	58,	-1,	-1,	-1,	56,	-1,	24,	-1,	-1,	-1,	-1,	-1,	40,	-1,	-1|
-1,	-1,	-1,	28,	56,	-1,	34,	-1,	-1,	13,	-1,	-1,	-1,	-1,	-1,	-1,	-1,	-1,	3,	-1,	15,	41,	-1,	55,	9,	7,	8,	-1,	21,	-1,	-1,	-1,	-1,	-1,	-1,	46,	-1,	-1,	53,	-1,	-1,	-1,	12,	30,	-1,	58,	43,	-1,	11,	-1,	6,	23,	48,	-1,	-1,	-1,	1,	-1,	-1,	17,	-1,	29,	37,	2|
-1,	-1,	-1,	-1,	16,	-1,	46,	1,	57,	-1,	-1,	-1,	27,	61,	-1,	-1,	10,	50,	-1,	8,	-1,	-1,	-1,	14,	-1,	17,	-1,	41,	31,	-1,	43,	29,	-1,	-1,	-1,	39,	12,	-1,	55,	-1,	21,	59,	38,	-1,	-1,	-1,	-1,	28,	-1,	-1,	5,	-1,	-1,	-1,	63,	64,	-1,	-1,	24,	-1,	-1,	20,	-1,	-1|
-1,	-1,	-1,	8,	-1,	-1,	6,	-1,	-1,	53,	52,	59,	-1,	-1,	41,	21,	42,	-1,	-1,	22,	-1,	-1,	-1,	-1,	-1,	25,	-1,	-1,	-1,	-1,	1,	-1,	-1,	-1,	34,	48,	-1,	19,	31,	40,	-1,	45,	-1,	-1,	57,	-1,	-1,	36,	30,	-1,	17,	-1,	62,	-1,	-1,	-1,	-1,	-1,	9,	58,	26,	44,	-1,	32|
-1,	10,	-1,	49,	-1,	57,	40,	-1,	-1,	-1,	6,	-1,	43,	-1,	-1,	-1,	15,	-1,	-1,	-1,	61,	-1,	14,	-1,	-1,	-1,	-1,	-1,	-1,	64,	-1,	36,	30,	-1,	-1,	-1,	-1,	-1,	-1,	5,	39,	-1,	-1,	-1,	-1,	-1,	-1,	-1,	38,	-1,	-1,	2,	37,	-1,	-1,	-1,	-1,	-1,	-1,	-1,	-1,	13,	-1,	48|
-1,	2,	-1,	-1,	-1,	-1,	62,	-1,	41,	-1,	26,	53,	1,	-1,	63,	61,	-1,	-1,	-1,	-1,	-1,	40,	64,	-1,	-1,	54,	-1,	13,	-1,	-1,	22,	-1,	36,	56,	-1,	16,	-1,	-1,	-1,	-1,	35,	15,	-1,	-1,	-1,	8,	-1,	42,	60,	-1,	44,	49,	23,	52,	28,	33,	-1,	-1,	-1,	-1,	34,	18,	-1,	-1|
-1,	-1,	59,	-1,	-1,	-1,	-1,	-1,	10,	-1,	-1,	9,	-1,	13,	2,	-1,	-1,	16,	-1,	29,	6,	30,	-1,	62,	-1,	32,	-1,	-1,	-1,	-1,	45,	34,	38,	-1,	-1,	-1,	-1,	-1,	-1,	-1,	55,	-1,	11,	44,	-1,	-1,	18,	48,	-1,	63,	-1,	-1,	-1,	-1,	-1,	-1,	-1,	-1,	-1,	-1,	-1,	-1,	43,	-1|
-1,	-1,	-1,	53,	-1,	-1,	-1,	17,	-1,	-1,	-1,	-1,	20,	62,	19,	-1,	-1,	-1,	8,	13,	27,	-1,	-1,	-1,	40,	-1,	59,	50,	30,	-1,	-1,	-1,	63,	-1,	6,	-1,	-1,	-1,	-1,	-1,	23,	51,	9,	52,	-1,	38,	-1,	34,	61,	-1,	-1,	-1,	-1,	-1,	-1,	-1,	33,	16,	32,	14,	10,	-1,	55,	-1|
43,	-1,	-1,	-1,	-1,	21,	1,	-1,	-1,	-1,	-1,	-1,	-1,	-1,	-1,	-1,	-1,	20,	-1,	-1,	42,	-1,	-1,	-1,	-1,	-1,	-1,	-1,	-1,	-1,	-1,	-1,	-1,	-1,	29,	10,	34,	-1,	39,	23,	45,	-1,	7,	-1,	-1,	41,	61,	-1,	-1,	-1,	-1,	-1,	9,	-1,	-1,	-1,	17,	26,	-1,	-1,	-1,	-1,	64,	40|
-1,	-1,	24,	-1,	3,	64,	-1,	-1,	28,	-1,	-1,	34,	-1,	30,	-1,	-1,	-1,	-1,	-1,	-1,	-1,	-1,	-1,	-1,	-1,	60,	-1,	-1,	56,	-1,	-1,	-1,	53,	51,	-1,	9,	-1,	-1,	12,	-1,	4,	-1,	25,	-1,	-1,	-1,	-1,	-1,	-1,	46,	31,	59,	-1,	-1,	20,	41,	-1,	-1,	7,	-1,	29,	-1,	-1,	42|
-1,	-1,	20,	-1,	34,	45,	-1,	-1,	-1,	-1,	-1,	-1,	-1,	-1,	-1,	54,	-1,	-1,	24,	55,	-1,	50,	-1,	18,	-1,	-1,	-1,	35,	53,	-1,	-1,	-1,	13,	-1,	52,	49,	62,	-1,	17,	19,	22,	-1,	40,	56,	-1,	28,	-1,	-1,	64,	-1,	-1,	-1,	-1,	-1,	4,	-1,	-1,	15,	61,	-1,	12,	-1,	-1,	-1|
-1,	31,	-1,	-1,	23,	-1,	11,	-1,	22,	-1,	-1,	38,	55,	-1,	-1,	7,	54,	46,	-1,	-1,	-1,	39,	-1,	-1,	-1,	48,	-1,	-1,	8,	-1,	41,	49,	3,	24,	26,	-1,	-1,	43,	-1,	-1,	29,	-1,	64,	-1,	33,	-1,	10,	-1,	-1,	62,	-1,	-1,	-1,	-1,	-1,	-1,	-1,	56,	58,	-1,	47,	28,	9,	-1|];
