sudoku-ls/benchmarks_LEQ/INST_64x64/40/inst64x64_40_19.txt
8
1
-1	-1	-1	-1	-1	-1	33	-1	-1	38	-1	41	-1	-1	-1	8	-1	-1	-1	31	-1	-1	-1	19	10	-1	-1	-1	-1	-1	-1	44	-1	-1	54	6	-1	5	-1	55	52	17	32	-1	-1	47	14	-1	-1	-1	-1	-1	-1	-1	-1	-1	-1	-1	15	-1	36	-1	-1	37
56	38	1	22	24	23	-1	7	-1	-1	-1	46	5	-1	-1	44	-1	-1	12	-1	-1	-1	-1	-1	21	-1	63	-1	14	52	9	37	-1	62	57	-1	-1	-1	19	-1	-1	-1	42	53	-1	-1	-1	10	16	60	-1	-1	-1	-1	-1	18	13	30	-1	-1	-1	-1	28	-1
28	55	-1	51	6	46	14	-1	9	-1	-1	-1	33	48	-1	-1	-1	-1	-1	-1	16	-1	-1	-1	7	64	3	-1	-1	-1	-1	40	-1	-1	-1	-1	-1	31	-1	-1	-1	-1	-1	1	-1	-1	-1	-1	24	-1	-1	-1	-1	-1	-1	-1	-1	-1	-1	-1	-1	-1	-1	-1
-1	-1	-1	39	-1	62	13	-1	-1	-1	-1	64	4	-1	-1	-1	-1	-1	6	32	-1	-1	-1	38	-1	-1	-1	-1	-1	-1	42	54	-1	-1	24	-1	3	-1	49	-1	-1	37	2	29	-1	-1	-1	61	-1	-1	7	-1	-1	-1	-1	58	51	-1	-1	9	-1	48	-1	-1
-1	8	-1	-1	-1	-1	17	-1	25	-1	-1	51	-1	-1	62	-1	27	-1	-1	-1	46	21	7	49	-1	28	31	60	-1	30	-1	-1	-1	-1	43	32	-1	-1	48	-1	-1	11	54	55	-1	26	38	-1	-1	-1	-1	4	-1	50	-1	37	-1	39	18	10	-1	-1	23	20
64	-1	-1	-1	26	-1	48	-1	-1	45	-1	37	-1	-1	3	43	-1	-1	-1	-1	-1	17	-1	9	-1	11	-1	8	-1	-1	62	-1	-1	-1	-1	36	-1	-1	-1	-1	34	19	-1	-1	-1	-1	56	-1	54	-1	-1	-1	-1	12	-1	57	-1	2	42	-1	-1	52	-1	14
21	-1	37	-1	-1	-1	27	20	-1	-1	-1	-1	31	35	-1	-1	-1	-1	5	-1	-1	-1	-1	-1	-1	-1	-1	-1	-1	33	-1	-1	-1	52	22	-1	-1	-1	7	-1	-1	4	62	-1	-1	50	-1	40	53	-1	-1	3	14	-1	-1	-1	-1	63	54	-1	-1	-1	44	-1
3	-1	-1	-1	42	-1	-1	-1	-1	-1	34	19	-1	-1	21	-1	37	-1	-1	20	-1	61	54	-1	-1	-1	22	-1	-1	56	48	2	-1	4	-1	-1	-1	-1	1	-1	-1	-1	-1	5	41	43	-1	46	62	-1	11	-1	-1	25	-1	52	53	45	60	-1	-1	49	32	-1
-1	-1	-1	-1	32	-1	-1	-1	-1	22	12	5	-1	-1	25	13	3	-1	61	-1	38	-1	8	-1	-1	55	-1	-1	-1	4	-1	35	7	-1	9	14	37	16	41	-1	-1	60	39	-1	-1	6	47	-1	31	36	-1	-1	-1	-1	-1	49	45	-1	-1	23	48	-1	-1	-1
-1	-1	-1	17	-1	-1	36	53	2	-1	-1	35	-1	-1	-1	3	-1	-1	-1	7	-1	-1	-1	-1	-1	45	-1	-1	-1	-1	6	-1	-1	11	8	-1	-1	50	-1	47	-1	44	-1	-1	29	15	-1	-1	33	-1	-1	-1	61	-1	43	38	-1	-1	-1	-1	14	-1	-1	-1
57	-1	21	-1	-1	-1	-1	25	-1	64	-1	45	-1	11	-1	32	41	42	13	-1	60	33	-1	-1	62	-1	1	49	3	-1	-1	-1	31	-1	2	-1	58	23	-1	10	50	36	26	-1	46	63	-1	-1	19	47	-1	-1	12	-1	30	55	-1	-1	52	-1	-1	-1	20	-1
60	33	-1	-1	1	41	61	-1	-1	47	-1	6	51	39	-1	-1	-1	-1	31	-1	50	5	-1	-1	20	13	-1	-1	-1	-1	16	-1	54	-1	42	-1	49	32	-1	62	-1	-1	-1	8	-1	-1	2	-1	37	-1	-1	17	64	-1	-1	-1	-1	28	-1	-1	-1	-1	-1	-1
-1	54	-1	35	-1	-1	45	28	-1	-1	-1	60	42	4	-1	36	-1	-1	-1	-1	-1	-1	-1	32	27	-1	-1	-1	41	-1	-1	47	-1	12	19	-1	21	-1	-1	-1	-1	1	-1	20	-1	-1	62	24	-1	-1	-1	26	40	-1	-1	-1	10	-1	-1	-1	-1	33	49	9
-1	40	55	14	-1	51	16	-1	-1	-1	31	33	9	57	-1	30	-1	-1	-1	-1	-1	49	62	-1	46	-1	-1	-1	-1	-1	58	-1	15	-1	64	-1	39	-1	-1	-1	-1	-1	-1	-1	22	-1	-1	-1	20	-1	60	-1	-1	-1	6	2	-1	-1	44	24	-1	-1	-1	-1
-1	6	10	52	-1	-1	24	-1	49	-1	-1	-1	-1	28	-1	-1	57	29	-1	-1	-1	-1	39	-1	-1	33	-1	36	-1	-1	-1	31	56	-1	3	-1	55	-1	-1	-1	41	-1	53	4	5	-1	-1	9	-1	-1	-1	-1	-1	1	-1	13	50	8	-1	-1	17	-1	40	-1
22	-1	49	-1	50	-1	8	-1	52	-1	-1	43	-1	-1	-1	-1	-1	-1	-1	64	12	-1	-1	-1	61	19	-1	-1	57	-1	-1	-1	-1	26	-1	-1	30	-1	33	-1	58	31	18	-1	37	-1	-1	-1	-1	-1	10	-1	-1	-1	45	-1	-1	47	-1	-1	-1	-1	27	62
-1	-1	18	-1	17	31	-1	23	-1	20	39	-1	32	33	35	-1	38	-1	41	-1	-1	56	-1	-1	-1	-1	-1	44	54	-1	53	-1	-1	63	-1	27	-1	-1	57	-1	15	-1	16	64	-1	-1	8	5	-1	6	9	-1	36	-1	37	7	-1	-1	48	-1	50	-1	-1	-1
-1	5	-1	-1	-1	-1	22	-1	42	-1	40	36	45	34	-1	-1	48	21	-1	-1	-1	52	-1	-1	32	38	-1	-1	6	-1	-1	-1	-1	-1	-1	44	-1	-1	2	-1	-1	-1	-1	-1	47	-1	-1	-1	14	-1	-1	-1	25	-1	60	4	-1	9	11	-1	58	-1	31	-1
-1	-1	32	-1	-1	52	-1	44	38	-1	-1	27	59	9	-1	-1	-1	-1	39	54	-1	29	37	-1	-1	-1	-1	-1	-1	-1	-1	-1	33	-1	-1	56	18	24	10	15	3	-1	-1	19	42	-1	30	-1	-1	-1	21	-1	53	-1	-1	-1	-1	-1	23	-1	-1	-1	-1	60
-1	24	48	57	27	-1	-1	-1	-1	-1	-1	2	-1	3	6	22	-1	12	43	36	-1	-1	-1	-1	17	30	-1	21	-1	37	29	-1	-1	-1	-1	31	-1	35	-1	-1	-1	18	34	-1	61	4	11	33	8	-1	-1	20	49	63	10	-1	-1	-1	-1	42	64	19	41	-1
-1	62	29	-1	-1	-1	-1	-1	-1	-1	48	-1	37	31	43	-1	-1	-1	-1	-1	-1	63	-1	3	-1	-1	41	-1	-1	-1	-1	56	-1	-1	17	-1	-1	-1	-1	-1	-1	-1	44	49	-1	-1	22	-1	46	-1	-1	-1	50	24	-1	-1	40	33	-1	-1	-1	4	1	-1
-1	1	-1	38	-1	16	30	13	-1	24	-1	-1	26	-1	-1	-1	31	-1	-1	19	-1	64	-1	-1	42	-1	33	63	62	39	60	50	59	-1	21	-1	-1	-1	6	9	-1	-1	58	-1	-1	-1	-1	-1	51	-1	41	-1	3	-1	-1	-1	37	54	45	-1	-1	-1	-1	52
-1	-1	-1	-1	-1	-1	58	-1	61	-1	-1	-1	50	-1	1	60	62	-1	-1	-1	33	-1	-1	-1	-1	35	-1	-1	-1	-1	26	-1	64	-1	-1	53	-1	41	20	-1	56	-1	45	-1	-1	-1	-1	17	-1	-1	-1	-1	-1	32	-1	-1	-1	3	36	-1	-1	5	-1	-1
54	59	-1	-1	36	12	43	-1	58	-1	-1	55	-1	-1	64	-1	-1	-1	-1	-1	-1	8	10	-1	-1	-1	-1	-1	-1	16	4	-1	29	-1	28	-1	7	-1	45	37	-1	-1	-1	46	38	60	-1	-1	-1	31	62	-1	-1	33	-1	-1	-1	-1	-1	2	15	-1	-1	-1
-1	13	-1	-1	-1	-1	50	-1	-1	-1	-1	14	-1	-1	-1	-1	-1	7	-1	-1	-1	57	-1	-1	5	-1	-1	55	-1	-1	-1	-1	37	16	-1	54	-1	-1	-1	-1	-1	-1	47	34	30	-1	15	41	-1	17	35	12	63	49	-1	45	26	-1	-1	-1	20	10	18	-1
-1	-1	-1	-1	-1	55	42	-1	-1	-1	-1	-1	-1	22	60	-1	-1	-1	-1	-1	-1	31	28	36	47	3	-1	-1	-1	-1	37	18	5	-1	35	-1	32	-1	34	-1	1	7	-1	-1	2	-1	-1	-1	25	-1	-1	9	-1	-1	-1	20	-1	41	8	-1	-1	58	-1	-1
-1	-1	-1	-1	-1	-1	-1	-1	-1	37	27	15	-1	64	17	50	5	-1	54	-1	-1	11	-1	58	-1	-1	57	-1	-1	9	32	63	-1	-1	-1	60	-1	-1	-1	-1	-1	-1	61	-1	44	10	59	3	6	-1	40	-1	-1	-1	-1	36	62	-1	-1	-1	-1	-1	-1	12
-1	-1	-1	-1	64	-1	-1	6	43	16	23	-1	39	19	-1	57	-1	-1	-1	59	-1	25	40	-1	-1	-1	-1	-1	7	-1	-1	-1	-1	2	18	62	17	-1	11	36	38	-1	56	-1	28	-1	32	50	-1	55	-1	-1	-1	-1	-1	-1	-1	-1	-1	-1	21	-1	-1	-1
62	35	38	-1	-1	59	-1	24	-1	32	-1	58	-1	-1	-1	28	13	-1	-1	-1	14	-1	45	-1	23	43	-1	22	-1	-1	52	-1	-1	-1	53	47	-1	-1	-1	-1	48	16	-1	18	-1	-1	-1	-1	3	39	27	60	-1	-1	-1	-1	-1	6	40	-1	-1	25	15	57
-1	-1	22	-1	-1	28	-1	-1	6	51	-1	-1	30	-1	29	11	-1	18	-1	-1	9	10	-1	-1	-1	-1	-1	58	-1	35	-1	-1	-1	57	49	-1	14	-1	-1	64	46	62	-1	-1	-1	53	52	-1	42	41	-1	-1	19	-1	-1	-1	-1	-1	3	-1	39	31	-1	5
-1	-1	15	47	5	17	-1	-1	3	-1	-1	-1	-1	8	-1	34	-1	-1	-1	-1	-1	-1	19	-1	-1	41	-1	-1	48	29	38	-1	-1	-1	45	42	-1	30	-1	7	-1	49	-1	6	-1	22	12	25	-1	23	-1	62	-1	-1	61	46	-1	-1	-1	-1	-1	-1	-1	-1
-1	-1	-1	-1	-1	1	-1	41	-1	35	44	-1	47	12	7	-1	55	24	-1	50	-1	-1	-1	-1	-1	61	-1	30	40	-1	-1	-1	6	-1	-1	20	-1	-1	-1	-1	-1	8	60	-1	-1	57	-1	-1	-1	-1	64	-1	38	-1	16	26	-1	42	-1	43	-1	-1	-1	-1
-1	-1	-1	-1	54	-1	23	-1	40	34	-1	48	-1	-1	51	-1	-1	-1	-1	-1	-1	27	-1	22	-1	42	45	-1	43	49	-1	-1	52	64	-1	-1	24	-1	46	-1	17	-1	8	31	50	-1	-1	59	-1	-1	-1	58	-1	-1	-1	-1	-1	-1	-1	-1	-1	53	-1	-1
-1	-1	52	5	-1	-1	-1	-1	-1	-1	57	44	-1	60	14	42	-1	26	50	62	48	23	-1	-1	-1	24	-1	25	13	-1	-1	-1	-1	-1	37	-1	-1	54	18	3	53	20	19	32	58	-1	1	43	55	-1	61	38	-1	-1	9	-1	-1	-1	33	27	-1	-1	-1	63
-1	16	-1	-1	61	11	51	-1	-1	-1	-1	-1	-1	55	-1	39	64	31	32	42	-1	-1	38	44	-1	50	48	46	63	-1	7	-1	35	13	33	-1	22	-1	-1	-1	-1	-1	-1	60	40	-1	-1	-1	-1	5	-1	1	29	41	-1	-1	24	-1	-1	12	-1	26	-1	36
-1	-1	63	-1	-1	-1	-1	-1	33	-1	29	61	-1	-1	-1	35	-1	-1	51	-1	-1	-1	-1	-1	-1	-1	27	-1	58	-1	-1	-1	-1	-1	-1	45	15	-1	16	25	-1	-1	-1	-1	-1	-1	-1	-1	28	24	18	-1	-1	-1	-1	50	-1	57	59	40	-1	42	-1	23
-1	15	-1	-1	-1	-1	-1	-1	-1	25	2	-1	52	17	-1	-1	-1	-1	11	10	29	-1	4	54	6	-1	14	-1	-1	62	-1	57	-1	43	63	-1	-1	26	21	49	16	22	5	-1	-1	39	36	-1	-1	-1	-1	51	-1	-1	-1	-1	-1	-1	-1	-1	38	-1	56	3
-1	-1	-1	12	-1	-1	-1	-1	36	-1	-1	32	-1	10	13	-1	45	-1	-1	-1	-1	59	-1	-1	38	-1	47	-1	22	-1	-1	-1	20	-1	39	50	-1	29	62	8	-1	63	-1	7	26	34	42	23	-1	27	-1	-1	60	-1	3	-1	-1	-1	4	-1	-1	-1	11	-1
-1	-1	-1	-1	13	-1	-1	-1	-1	-1	-1	18	-1	20	53	58	16	-1	40	-1	-1	-1	-1	39	-1	-1	-1	51	-1	-1	61	-1	11	-1	-1	-1	31	47	5	12	27	14	21	-1	-1	-1	-1	-1	4	-1	43	6	-1	-1	7	44	-1	22	-1	-1	9	-1	54	29
37	17	27	-1	-1	-1	-1	-1	-1	-1	64	-1	-1	-1	-1	-1	19	-1	-1	-1	-1	-1	-1	-1	-1	52	10	4	-1	-1	-1	-1	-1	-1	58	-1	51	-1	28	57	11	-1	-1	-1	55	-1	-1	44	63	-1	-1	-1	22	-1	-1	53	-1	-1	-1	-1	-1	-1	-1	39
-1	-1	-1	-1	-1	58	-1	-1	-1	14	-1	16	-1	-1	-1	12	-1	-1	62	28	-1	-1	-1	-1	-1	-1	-1	53	45	-1	-1	-1	-1	31	41	55	-1	-1	32	-1	-1	-1	37	24	-1	-1	-1	-1	48	-1	-1	18	-1	-1	26	21	-1	51	50	-1	-1	-1	-1	-1
6	-1	-1	-1	-1	24	63	-1	-1	58	50	4	-1	-1	-1	-1	30	8	-1	46	52	-1	47	-1	-1	21	-1	48	28	-1	-1	-1	49	-1	-1	-1	5	-1	-1	-1	-1	-1	1	42	9	-1	51	-1	7	34	45	39	-1	38	14	-1	32	10	-1	-1	-1	17	-1	19
23	-1	-1	36	-1	42	-1	-1	59	19	17	39	-1	-1	15	-1	-1	-1	33	-1	1	16	55	35	-1	-1	-1	-1	-1	13	5	24	62	-1	50	29	-1	-1	-1	22	-1	-1	43	11	53	-1	-1	-1	-1	37	-1	-1	-1	-1	58	-1	47	-1	-1	-1	4	-1	57	-1
-1	-1	-1	-1	41	-1	57	-1	51	1	24	-1	-1	-1	-1	-1	-1	-1	-1	-1	40	38	61	-1	43	-1	-1	-1	52	14	-1	39	-1	-1	-1	-1	-1	33	-1	-1	64	2	55	21	36	5	29	58	-1	-1	-1	31	4	19	-1	42	6	-1	-1	37	63	15	-1	-1
5	20	35	-1	40	-1	19	27	29	-1	-1	62	-1	-1	23	-1	-1	-1	48	58	18	-1	36	-1	-1	63	11	-1	-1	-1	-1	-1	-1	-1	4	-1	-1	-1	-1	26	-1	-1	-1	15	45	-1	44	-1	50	49	-1	-1	-1	47	53	-1	41	-1	-1	-1	33	-1	-1	-1
39	-1	45	-1	33	-1	-1	59	21	-1	-1	-1	48	36	31	55	50	-1	49	17	37	-1	22	-1	-1	-1	60	6	16	32	-1	-1	-1	-1	-1	-1	-1	-1	-1	-1	-1	-1	63	57	-1	30	-1	62	5	-1	-1	-1	-1	29	40	15	-1	11	-1	52	-1	35	-1	-1
-1	-1	-1	-1	-1	47	-1	-1	-1	-1	-1	-1	-1	-1	-1	-1	-1	-1	2	-1	-1	-1	-1	60	58	44	35	-1	29	61	-1	27	40	-1	-1	28	-1	21	63	18	31	-1	-1	25	-1	-1	-1	52	-1	-1	-1	22	-1	-1	17	-1	3	-1	26	-1	59	-1	-1	-1
-1	28	-1	61	-1	-1	-1	-1	-1	-1	5	-1	60	-1	-1	-1	43	57	10	39	-1	-1	-1	-1	41	-1	-1	23	25	-1	18	42	-1	58	-1	34	-1	36	-1	-1	40	50	-1	-1	-1	-1	-1	-1	-1	8	51	16	-1	-1	-1	-1	48	-1	-1	-1	-1	-1	-1	49
-1	41	40	-1	-1	61	44	-1	31	17	-1	-1	-1	42	-1	-1	-1	23	-1	-1	45	-1	-1	-1	-1	-1	-1	33	-1	-1	-1	11	10	-1	-1	7	-1	57	-1	20	-1	52	13	-1	34	-1	-1	-1	9	-1	50	53	-1	8	-1	35	18	-1	-1	3	55	6	-1	-1
-1	-1	-1	10	25	30	52	62	11	39	-1	-1	-1	-1	32	23	-1	-1	27	-1	51	-1	59	40	-1	-1	53	14	2	20	-1	28	-1	3	5	-1	6	-1	-1	41	8	33	-1	-1	35	-1	26	18	-1	-1	55	-1	16	-1	44	31	15	-1	63	-1	-1	-1	42	-1
-1	21	-1	-1	-1	-1	-1	-1	20	-1	-1	-1	-1	-1	58	48	-1	39	-1	30	-1	-1	57	63	60	-1	36	-1	12	-1	-1	-1	50	37	-1	61	-1	-1	-1	-1	-1	-1	-1	-1	11	-1	16	55	49	40	-1	27	-1	10	-1	32	-1	23	-1	-1	35	62	-1	-1
51	-1	57	-1	58	54	32	45	19	-1	-1	-1	-1	-1	-1	-1	-1	44	53	-1	-1	-1	-1	5	-1	-1	6	40	-1	50	46	22	47	17	-1	-1	-1	62	8	-1	-1	-1	15	-1	-1	-1	-1	-1	36	26	-1	-1	-1	-1	-1	-1	-1	34	-1	-1	-1	14	-1	-1
13	-1	60	-1	-1	-1	-1	-1	-1	-1	51	8	-1	-1	12	-1	-1	-1	-1	38	-1	6	20	-1	-1	-1	32	-1	61	18	-1	-1	16	-1	36	26	-1	-1	-1	-1	54	53	29	-1	-1	-1	31	7	2	58	-1	47	45	56	22	24	-1	5	-1	59	-1	-1	33	-1
-1	27	-1	28	56	-1	-1	-1	5	13	47	-1	38	-1	-1	16	-1	-1	-1	35	15	-1	26	-1	-1	-1	8	-1	-1	57	-1	-1	-1	-1	-1	-1	54	-1	-1	51	25	-1	-1	30	63	-1	-1	-1	-1	-1	6	-1	48	61	39	59	-1	31	-1	-1	-1	-1	-1	-1
-1	18	-1	-1	-1	-1	46	-1	-1	3	-1	-1	-1	61	-1	6	10	-1	-1	-1	-1	-1	-1	-1	4	-1	-1	-1	-1	15	-1	-1	32	-1	13	39	12	25	55	-1	21	59	-1	-1	-1	-1	37	-1	-1	42	5	19	-1	-1	63	-1	-1	-1	-1	54	53	-1	-1	47
63	47	-1	8	-1	5	6	-1	-1	53	52	-1	-1	-1	-1	21	-1	37	-1	22	-1	-1	43	-1	-1	25	54	39	-1	-1	-1	-1	-1	-1	-1	-1	-1	19	-1	40	49	-1	-1	10	57	-1	-1	36	-1	-1	-1	-1	62	-1	-1	-1	-1	-1	9	58	-1	-1	50	32
52	-1	-1	-1	-1	-1	40	-1	-1	12	-1	-1	43	-1	-1	-1	-1	-1	34	-1	61	-1	14	7	-1	29	-1	9	17	-1	-1	-1	30	33	-1	35	50	-1	-1	-1	39	46	24	-1	-1	-1	-1	-1	-1	21	19	2	37	58	-1	-1	-1	27	41	-1	3	13	63	-1
-1	-1	-1	-1	47	27	-1	-1	41	-1	-1	-1	1	24	63	-1	-1	-1	37	-1	-1	40	64	-1	-1	-1	-1	13	11	-1	-1	-1	-1	56	-1	-1	48	46	25	-1	-1	-1	-1	-1	-1	8	21	42	60	-1	-1	49	23	-1	28	33	-1	-1	-1	-1	-1	-1	-1	-1
-1	58	-1	46	7	56	28	61	-1	-1	3	-1	-1	-1	2	-1	52	-1	-1	-1	-1	30	-1	-1	-1	32	42	-1	-1	5	-1	34	-1	8	31	40	41	-1	-1	4	-1	54	-1	-1	19	-1	-1	-1	39	-1	-1	-1	15	-1	50	-1	21	-1	20	60	51	23	43	-1
41	26	-1	53	48	-1	-1	-1	37	-1	4	-1	20	-1	-1	-1	-1	-1	8	-1	27	-1	-1	-1	-1	-1	-1	50	-1	-1	-1	1	63	7	-1	15	-1	60	-1	21	-1	-1	-1	-1	-1	-1	58	34	-1	-1	-1	-1	43	-1	-1	12	-1	16	-1	-1	10	-1	55	11
-1	-1	13	-1	-1	21	-1	35	-1	-1	-1	-1	-1	-1	8	-1	-1	-1	-1	-1	-1	-1	-1	-1	-1	62	55	28	-1	-1	-1	-1	-1	-1	-1	10	-1	-1	-1	-1	45	-1	-1	-1	14	41	-1	57	-1	-1	-1	-1	-1	-1	-1	-1	-1	-1	-1	46	-1	-1	-1	40
-1	-1	-1	-1	3	64	54	-1	28	33	35	-1	-1	30	-1	-1	-1	-1	-1	-1	-1	32	-1	1	14	60	-1	-1	56	-1	-1	61	53	51	11	-1	-1	55	12	-1	-1	47	-1	-1	-1	-1	-1	63	-1	-1	31	-1	13	-1	20	41	44	-1	7	-1	-1	-1	62	42
33	-1	-1	37	34	-1	-1	-1	-1	48	14	-1	-1	44	-1	54	-1	-1	24	-1	41	50	-1	18	-1	-1	-1	-1	-1	-1	21	23	13	-1	-1	-1	-1	59	-1	19	22	-1	40	-1	43	-1	-1	-1	64	-1	-1	-1	8	16	-1	-1	-1	-1	61	6	-1	38	-1	-1
42	-1	-1	-1	23	-1	-1	32	22	-1	18	-1	55	-1	-1	-1	54	46	57	4	-1	39	60	-1	52	48	-1	19	8	-1	-1	49	-1	-1	26	-1	-1	43	-1	61	29	13	-1	-1	-1	-1	-1	-1	27	-1	-1	25	-1	5	-1	51	2	-1	58	35	47	-1	-1	-1
64 
28 55 17 25
7 16 63 26
36 4 2 18
29 39 48 27
61 10 10 59
61 54 43 53
27 2 37 4
37 62 7 17
16 27 58 20
17 1 28 31
47 5 63 18
23 63 58 44
44 49 60 20
26 43 51 8
48 6 42 35
13 61 47 35
50 18 22 12
31 49 12 23
62 2 10 58
61 18 48 15
12 48 50 52
59 39 5 48
8 26 47 54
30 58 26 40
14 57 45 6
31 41 28 19
28 44 37 9
7 33 1 52
25 6 62 61
58 43 44 31
23 30 10 64
60 59 21 42
4 47 60 57
54 7 13 9
4 63 28 64
54 17 59 51
48 8 36 24
16 28 26 19
45 48 8 53
64 10 38 37
51 42 14 61
56 17 14 42
61 1 49 58
43 20 37 60
26 11 21 52
43 34 1 53
37 55 51 44
23 35 44 2
17 38 41 7
40 10 29 60
8 25 29 20
24 43 27 20
21 59 54 39
38 52 23 46
10 60 23 34
25 37 60 52
12 60 3 62
63 13 13 11
32 57 40 14
21 20 54 35
61 47 26 10
54 28 10 5
6 51 33 11
59 38 52 13
